17	4
42	48	37	37	
0	0	0	0	0	3	2	3	4	
7	9	8	5	9	2	11	17	
4	6	5	6	7	1	10	
5	2	9	4	5	3	5	7	8	
1	8	6	8	6	3	6	13	17	
25	2	7	5	9	2	17	17	
50	8	3	8	8	3	15	17	17	
175	3	7	2	2	2	9	17	
100	3	10	2	3	2	15	17	
100	10	5	5	3	2	12	14	
225	9	3	5	7	1	12	
250	4	6	10	2	3	16	17	17	
7	8	9	4	2	1	17	
2	9	8	9	3	1	17	
4	4	5	3	3	1	17	
2	8	5	9	1	1	17	
0	0	0	0	0	0	
